<number of tasks>
20


<number of equipment>
5


<cycle time>
1000


<investment costs>
1,17629
2,12511
3,15388
4,13177
5,13961


<task times>
1,-1,-1,107,164,97
2,-1,-1,210,231,262
3,-1,-1,131,220,205
4,-1,-1,209,217,220
5,-1,-1,193,157,185
6,83,143,-1,-1,215
7,184,216,-1,-1,212
8,177,-1,-1,-1,214
9,172,196,-1,-1,157
10,167,198,-1,-1,196
11,-1,-1,205,218,220
12,180,-1,-1,-1,213
13,-1,-1,177,148,113
14,167,231,-1,-1,216
15,153,154,-1,-1,137
16,160,-1,-1,-1,220
17,180,226,-1,-1,220
18,-1,-1,152,221,185
19,-1,-1,197,224,205
20,-1,-1,206,218,217


<precedence relations>
1,14
2,14
4,8
5,6
5,7
6,14
7,9
7,11
7,12
8,10
8,13
9,14
11,15
13,16
14,17
14,18
14,19
14,20


<task types>
1,3
2,3
3,3
4,3
5,3
6,2
7,2
8,1
9,2
10,2
11,3
12,1
13,3
14,2
15,2
16,1
17,2
18,3
19,3
20,3


<line depot>
1,1
2,0
3,0
4,1
5,3


<processing costs>
1,14400
2,7200
3,7200
4,7200
5,21600


<saving costs>
1,1762
2,1251
3,1538
4,1317
5,1396


<end>
